p cnf 11 25
-11 -10 9 0
11 -9 -7 0
11 7 -2 0
11 6 -5 0
11 5 3 0
-11 4 1 0
10 9 -3 0
10 8 -3 0
10 6 -2 0
10 5 -3 0
10 -5 -2 0
-9 8 -7 0
9 8 4 0
9 -8 1 0
-9 7 -5 0
-9 7 -3 0
-9 -6 2 0
9 -3 -2 0
-8 -5 3 0
-8 5 2 0
-8 -5 -1 0
-8 -2 1 0
-7 6 -2 0
-6 5 -2 0
-6 -2 -1 0
